sat
(
(define-fun N () String "")
(define-fun J () String "")
(define-fun I () String "")
(define-fun K () String "")
(define-fun H () String "aaaaaaaaaaaaaabaababb")
(define-fun G () String "")
(define-fun L () String "")
(define-fun O () String "")
(define-fun M () String "")
(define-fun Q () String "aaaaaaaaaaaaaaabaabbbaa")
)
